c File: flat30_3_0.col
c
c SOURCE: Joseph Culberson (joe@cs.ualberta.ca)
c DESCRIPTION: Quasi-random coloring problem
c              generated with flatness = 0
c                             probability = 0.200
c                             known coloring = 3
c                             random seed = 234932
c              Creation Date:  Fri Nov 29 22:02:06 1996
c Maximum degree = 6 Minimum degree = 1
c
c cnf created by edge2cnf
p cnf 90 300
-1 -2 0
-1 -3 0
-2 -3 0
1 2 3 0
-4 -5 0
-4 -6 0
-5 -6 0
4 5 6 0
-7 -8 0
-7 -9 0
-8 -9 0
7 8 9 0
-10 -11 0
-10 -12 0
-11 -12 0
10 11 12 0
-13 -14 0
-13 -15 0
-14 -15 0
13 14 15 0
-16 -17 0
-16 -18 0
-17 -18 0
16 17 18 0
-19 -20 0
-19 -21 0
-20 -21 0
19 20 21 0
-22 -23 0
-22 -24 0
-23 -24 0
22 23 24 0
-25 -26 0
-25 -27 0
-26 -27 0
25 26 27 0
-28 -29 0
-28 -30 0
-29 -30 0
28 29 30 0
-31 -32 0
-31 -33 0
-32 -33 0
31 32 33 0
-34 -35 0
-34 -36 0
-35 -36 0
34 35 36 0
-37 -38 0
-37 -39 0
-38 -39 0
37 38 39 0
-40 -41 0
-40 -42 0
-41 -42 0
40 41 42 0
-43 -44 0
-43 -45 0
-44 -45 0
43 44 45 0
-46 -47 0
-46 -48 0
-47 -48 0
46 47 48 0
-49 -50 0
-49 -51 0
-50 -51 0
49 50 51 0
-52 -53 0
-52 -54 0
-53 -54 0
52 53 54 0
-55 -56 0
-55 -57 0
-56 -57 0
55 56 57 0
-58 -59 0
-58 -60 0
-59 -60 0
58 59 60 0
-61 -62 0
-61 -63 0
-62 -63 0
61 62 63 0
-64 -65 0
-64 -66 0
-65 -66 0
64 65 66 0
-67 -68 0
-67 -69 0
-68 -69 0
67 68 69 0
-70 -71 0
-70 -72 0
-71 -72 0
70 71 72 0
-73 -74 0
-73 -75 0
-74 -75 0
73 74 75 0
-76 -77 0
-76 -78 0
-77 -78 0
76 77 78 0
-79 -80 0
-79 -81 0
-80 -81 0
79 80 81 0
-82 -83 0
-82 -84 0
-83 -84 0
82 83 84 0
-85 -86 0
-85 -87 0
-86 -87 0
85 86 87 0
-88 -89 0
-88 -90 0
-89 -90 0
88 89 90 0
-34 -1 0
-35 -2 0
-36 -3 0
-37 -1 0
-38 -2 0
-39 -3 0
-40 -1 0
-41 -2 0
-42 -3 0
-67 -1 0
-68 -2 0
-69 -3 0
-70 -1 0
-71 -2 0
-72 -3 0
-73 -1 0
-74 -2 0
-75 -3 0
-43 -4 0
-44 -5 0
-45 -6 0
-52 -4 0
-53 -5 0
-54 -6 0
-58 -4 0
-59 -5 0
-60 -6 0
-64 -4 0
-65 -5 0
-66 -6 0
-70 -4 0
-71 -5 0
-72 -6 0
-82 -4 0
-83 -5 0
-84 -6 0
-55 -7 0
-56 -8 0
-57 -9 0
-61 -7 0
-62 -8 0
-63 -9 0
-85 -7 0
-86 -8 0
-87 -9 0
-31 -10 0
-32 -11 0
-33 -12 0
-49 -10 0
-50 -11 0
-51 -12 0
-61 -10 0
-62 -11 0
-63 -12 0
-76 -10 0
-77 -11 0
-78 -12 0
-40 -13 0
-41 -14 0
-42 -15 0
-46 -13 0
-47 -14 0
-48 -15 0
-55 -13 0
-56 -14 0
-57 -15 0
-67 -13 0
-68 -14 0
-69 -15 0
-73 -13 0
-74 -14 0
-75 -15 0
-85 -13 0
-86 -14 0
-87 -15 0
-49 -16 0
-50 -17 0
-51 -18 0
-34 -19 0
-35 -20 0
-36 -21 0
-52 -19 0
-53 -20 0
-54 -21 0
-85 -19 0
-86 -20 0
-87 -21 0
-88 -19 0
-89 -20 0
-90 -21 0
-34 -22 0
-35 -23 0
-36 -24 0
-46 -22 0
-47 -23 0
-48 -24 0
-70 -22 0
-71 -23 0
-72 -24 0
-73 -22 0
-74 -23 0
-75 -24 0
-40 -25 0
-41 -26 0
-42 -27 0
-67 -25 0
-68 -26 0
-69 -27 0
-82 -25 0
-83 -26 0
-84 -27 0
-31 -28 0
-32 -29 0
-33 -30 0
-43 -28 0
-44 -29 0
-45 -30 0
-79 -28 0
-80 -29 0
-81 -30 0
-61 -34 0
-62 -35 0
-63 -36 0
-79 -34 0
-80 -35 0
-81 -36 0
-88 -34 0
-89 -35 0
-90 -36 0
-85 -37 0
-86 -38 0
-87 -39 0
-88 -37 0
-89 -38 0
-90 -39 0
-76 -40 0
-77 -41 0
-78 -42 0
-64 -43 0
-65 -44 0
-66 -45 0
-61 -46 0
-62 -47 0
-63 -48 0
-73 -46 0
-74 -47 0
-75 -48 0
-88 -46 0
-89 -47 0
-90 -48 0
-79 -49 0
-80 -50 0
-81 -51 0
-82 -49 0
-83 -50 0
-84 -51 0
-61 -52 0
-62 -53 0
-63 -54 0
-64 -52 0
-65 -53 0
-66 -54 0
-79 -52 0
-80 -53 0
-81 -54 0
-76 -55 0
-77 -56 0
-78 -57 0
-82 -55 0
-83 -56 0
-84 -57 0
-64 -58 0
-65 -59 0
-66 -60 0
-76 -58 0
-77 -59 0
-78 -60 0
-85 -58 0
-86 -59 0
-87 -60 0
